letting initialStacks = [15, 6, 38, 36, 27, 8, 21, 19, 40, 16, 17, 31, 37, 23, 32, 1, 24, 14, 49, 7, 34, 30, 11, 35, 45, 51, 44, 26, 47, 10, 2, 4, 20, 12, 18, 41, 13, 42, 5, 25, 46, 22, 48, 50, 9, 33, 29, 43, 39, 3, 28]
